10J3M/DAT/10J3MNTL-4.dat
10 3
26.7564 26.7564
27.1734 27.1734
37.3391 37.3391
28.4472 28.4472
19.148 19.148
19.8144 19.8144
22.9462 22.9462
33.328 33.328
21.7702 21.7702
22.2775 22.2775
64.7501