10J3M/SOL/10J3MNTL-4.sol
solution status: optimal solution found
objective value:                              64.7501
x#2#2                               0.389038545047731 	(obj:0)
x#3#3                                               1 	(obj:0)
x#4#2                                               1 	(obj:0)
x#5#1                                               1 	(obj:0)
x#6#2                                               1 	(obj:0)
x#7#1                              0.0677410638798575 	(obj:0)
x#8#2                               0.177538406144983 	(obj:0)
x#8#3                               0.822461593855017 	(obj:0)
x#9#1                                               1 	(obj:0)
x#10#1                                              1 	(obj:0)
z                                             64.7501 	(obj:1)
